u120_19
150 120 50 52
49 0
95 0
38 1
62 1
63 2
97 3
42 1
62 2
100 4
43 3
44 4
77 5
97 6
94 7
68 5
23 2
50 6
36 7
89 8
58 8
97 9
27 9
64 10
65 10
54 11
58 11
24 9
35 11
33 12
63 12
32 12
50 13
58 13
90 14
44 14
50 15
48 15
21 12
72 16
75 16
21 13
74 17
28 15
95 18
77 19
69 17
96 20
24 18
57 19
85 21
72 22
96 23
50 20
83 24
65 22
62 21
99 25
93 26
23 15
77 27
94 28
31 23
50 24
33 25
79 29
73 30
23 18
55 26
44 27
78 31
84 32
66 29
31 28
59 30
97 33
95 34
22 23
76 35
90 36
66 31
29 32
100 37
90 38
92 39
50 33
49 34
47 35
43 36
37 37
40 38
60 40
52 39
54 40
99 41
34 32
46 41
88 42
97 43
85 44
39 42
32 40
51 43
95 45
54 44
99 46
86 47
48 45
90 48
28 27
25 35
86 49
39 46
74 50
26 47
38 48
60 49
41 50
67 51
80 51
33 47